certificates/rado_a14_c34_N77.drat
-71 -74 -77 0
-2 65 71 0
65 71 0
d -2 65 71 0
d 65 2 71 0
71 -75 0
-71 -77 0
d -71 -74 -77 0
12 -77 0
-77 0
-7 0
71 0
13 0
1 0
-21 0
-51 0
-33 0
3 0
-11 0
-63 0
-9 0
-23 0
-5 0
75 0
4 0
73 0
41 0
69 0
43 0
45 0
2 0
47 0
15 0
57 0
27 0
59 0
-55 0
0
